# Solution for model GasLib-40
# Objective value = 1.0643421274711526e+01
loadshed[innode_1] 0
loadshed[innode_2] 0
loadshed[innode_3] 0
loadshed[innode_4] 0
loadshed[innode_5] 0
loadshed[innode_6] 0
loadshed[innode_7] 0
loadshed[innode_8] 0
loadshed[source_1] -3.4193755145999805e-01
loadshed[source_2] 6.0725753514068170e-02
loadshed[source_3] 3.4853675571258280e-01
loadshed[sink_1] 0
loadshed[sink_2] 0
loadshed[sink_3] 0
loadshed[sink_4] 0
loadshed[sink_5] 0
loadshed[sink_6] 0
loadshed[sink_7] 0
loadshed[sink_8] 0
loadshed[sink_9] 0
loadshed[sink_10] 0
loadshed[sink_11] 0
loadshed[sink_12] 6.5080792507790219e-01
loadshed[sink_13] 0
loadshed[sink_14] 0
loadshed[sink_15] 0
loadshed[sink_16] 0
loadshed[sink_17] 0
loadshed[sink_18] 0
loadshed[sink_19] 0
loadshed[sink_20] 0
loadshed[sink_21] 0
loadshed[sink_22] 0
loadshed[sink_23] 0
loadshed[sink_24] 0
loadshed[sink_25] 0
loadshed[sink_26] 0
loadshed[sink_27] 0
loadshed[sink_28] 0
loadshed[sink_29] 0
flow[source_1,sink_3] 2.1214728027074204e+02
flow[innode_1,sink_16] 1.6354166666666970e+01
flow[innode_6,sink_13] 1.1489161415256888e+01
flow[sink_13,sink_14] -4.86500525140978
flow[sink_14,sink_10] -2.1219171918076448e+01
flow[sink_25,sink_26] 1.7148757673637246e+02
flow[sink_26,sink_9] 1.2174715285081979e+02
flow[sink_9,sink_18] 1.0539298618415312e+02
flow[sink_26,sink_4] 3.3386257218886023e+01
flow[sink_4,sink_20] -1.7178676478595648e+01
flow[sink_18,sink_6] 8.9038819517486445e+01
flow[sink_25,innode_8] -1.7943894693740569e+02
flow[sink_6,sink_7] 3.9976319517485990e+01
flow[sink_6,sink_22] 3.2708333333333641e+01
flow[sink_7,sink_24] 3.8419078725288479e+01
flow[sink_22,sink_1] 1.6354166666666970e+01
flow[sink_24,sink_21] 2.2064912058621811e+01
flow[sink_21,sink_12] 5.7107453919551423e+00
flow[sink_7,sink_5] -1.4796925874468741e+01
flow[sink_5,sink_17] -3.1151092541135313e+01
flow[sink_17,sink_4] -3.4210767030815006e+01
flow[sink_17,sink_8] -1.3294492176987205e+01
flow[sink_3,sink_23] 16.3541666666697
flow[sink_8,sink_20] -2.9648658843653873e+01
flow[sink_25,sink_20] 6.3181501988916125e+01
flow[sink_25,sink_15] -8.3073459869805987e+01
flow[sink_15,sink_29] 0
flow[sink_29,sink_28] 1.6354166666667879e+01
flow[sink_29,sink_2] 1.1578179320313933e+02
flow[sink_2,sink_15] 9.9427626536472658e+01
flow[sink_29,innode_7] -1.4849012653647387e+02
flow[innode_4,sink_19] 0
flow[sink_19,innode_3] 7.0281671918076754e+01
flow[innode_4,innode_5] 1.0299000525141008e+02
flow[sink_27,innode_5] -1.0299000525141008e+02
flow[sink_27,sink_19] 8.6635838584743425e+01
flow[sink_10,sink_11] 3.2708333333333641e+01
flow[sink_10,innode_2] 0
flow[sink_10,innode_3] -7.0281671918076754e+01
flow[innode_6,sink_25] -1.1489161415256888e+01
flow[sink_11,innode_1] 1.6354166666666970e+01
flow[sink_19,innode_2] 0
flow[source_3,innode_4] 1.0299000525141008e+02
flow[source_2,innode_7] 1.4849012653647387e+02
flow[sink_3,innode_8] 1.7943894693740569e+02
pressure[innode_1] 7.4178545062675056e+01
pressure[innode_2] 7.8227677860311772e+01
pressure[innode_3] 7.8072047056385173e+01
pressure[innode_4] 81.01325
pressure[innode_5] 8.0942408043708284e+01
pressure[innode_6] 73.3812408189298
pressure[innode_7] 81.01325
pressure[innode_8] 8.0304122685253461e+01
pressure[source_1] 81.01325
pressure[source_2] 81.01325
pressure[source_3] 81.01325
pressure[sink_1] 4.5724478619408707e+01
pressure[sink_2] 7.4108837335037180e+01
pressure[sink_3] 8.0304122685253461e+01
pressure[sink_4] 5.7058656348155765e+01
pressure[sink_5] 5.3430702411004880e+01
pressure[sink_6] 4.7825556229796078e+01
pressure[sink_7] 4.7276776651944587e+01
pressure[sink_8] 5.6252869366834389e+01
pressure[sink_9] 5.4016590179582643e+01
pressure[sink_10] 74.3302463702786
pressure[sink_11] 7.4178545062675056e+01
pressure[sink_12] 1.0132500000000002e+00
pressure[sink_13] 7.3317902992064731e+01
pressure[sink_14] 7.3326609333368950e+01
pressure[sink_15] 7.3784228047891517e+01
pressure[sink_16] 7.3156895227857376e+01
pressure[sink_17] 5.5751233638755295e+01
pressure[sink_18] 5.0203157814317684e+01
pressure[sink_19] 7.8227677860311772e+01
pressure[sink_20] 5.8318963931111725e+01
pressure[sink_21] 3.0454457607703929e+00
pressure[sink_22] 4.6788247761763714e+01
pressure[sink_23] 8.0139404673593674e+01
pressure[sink_24] 3.28979416107136
pressure[sink_25] 73.3812408189298
pressure[sink_26] 61.303471498456
pressure[sink_27] 8.0087781305188912e+01
pressure[sink_28] 7.6746438550934528e+01
pressure[sink_29] 77.0417208245517
interdiction[source_1,sink_3] 0
interdiction[innode_1,sink_16] 0
interdiction[innode_6,sink_13] 0
interdiction[sink_13,sink_14] 0
interdiction[sink_14,sink_10] 0
interdiction[sink_25,sink_26] 0
interdiction[sink_26,sink_9] 0
interdiction[sink_9,sink_18] 0
interdiction[sink_26,sink_4] 0
interdiction[sink_4,sink_20] 0
interdiction[sink_18,sink_6] 0
interdiction[sink_25,innode_8] 0
interdiction[sink_6,sink_7] 0
interdiction[sink_6,sink_22] 0
interdiction[sink_7,sink_24] 0
interdiction[sink_22,sink_1] 0
interdiction[sink_24,sink_21] 0
interdiction[sink_21,sink_12] 0
interdiction[sink_7,sink_5] 0
interdiction[sink_5,sink_17] 0
interdiction[sink_17,sink_4] 0
interdiction[sink_17,sink_8] 0
interdiction[sink_3,sink_23] 0
interdiction[sink_8,sink_20] 0
interdiction[sink_25,sink_20] 0
interdiction[sink_25,sink_15] 0
interdiction[sink_15,sink_29] 1
interdiction[sink_29,sink_28] 0
interdiction[sink_29,sink_2] 0
interdiction[sink_2,sink_15] 0
interdiction[sink_29,innode_7] 0
interdiction[innode_4,sink_19] 1
interdiction[sink_19,innode_3] 0
interdiction[innode_4,innode_5] 0
interdiction[sink_27,innode_5] 0
interdiction[sink_27,sink_19] 0
interdiction[sink_10,sink_11] 0
interdiction[sink_10,innode_2] 1
interdiction[sink_10,innode_3] 0
interdiction[innode_6,sink_25] 0
interdiction[sink_11,innode_1] 0
interdiction[sink_19,innode_2] 0
interdiction[source_3,innode_4] 0
interdiction[source_2,innode_7] 0
interdiction[sink_3,innode_8] 0
WCcheckFlow[source_1,sink_3] 39
WCcheckFlow[innode_1,sink_16] 1
WCcheckFlow[innode_6,sink_13] 13
WCcheckFlow[sink_13,sink_14] 12
WCcheckFlow[sink_14,sink_10] 11
WCcheckFlow[sink_25,sink_26] 15
WCcheckFlow[sink_26,sink_9] 12
WCcheckFlow[sink_9,sink_18] 11
WCcheckFlow[sink_26,sink_4] 2
WCcheckFlow[sink_4,sink_20] 1
WCcheckFlow[sink_18,sink_6] 10
WCcheckFlow[sink_25,innode_8] -36
WCcheckFlow[sink_6,sink_7] 7
WCcheckFlow[sink_6,sink_22] 2
WCcheckFlow[sink_7,sink_24] 3
WCcheckFlow[sink_22,sink_1] 1
WCcheckFlow[sink_24,sink_21] 2
WCcheckFlow[sink_21,sink_12] 1
WCcheckFlow[sink_7,sink_5] 3
WCcheckFlow[sink_5,sink_17] 2
WCcheckFlow[sink_17,sink_4] 0
WCcheckFlow[sink_17,sink_8] 1
WCcheckFlow[sink_3,sink_23] 1
WCcheckFlow[sink_8,sink_20] 0
WCcheckFlow[sink_25,sink_20] 0
WCcheckFlow[sink_25,sink_15] 6
WCcheckFlow[sink_15,sink_29] 0
WCcheckFlow[sink_29,sink_28] 1
WCcheckFlow[sink_29,sink_2] -4
WCcheckFlow[sink_2,sink_15] -5
WCcheckFlow[sink_29,innode_7] 2
WCcheckFlow[innode_4,sink_19] 0
WCcheckFlow[sink_19,innode_3] -6
WCcheckFlow[innode_4,innode_5] -2
WCcheckFlow[sink_27,innode_5] 3
WCcheckFlow[sink_27,sink_19] -4
WCcheckFlow[sink_10,sink_11] 3
WCcheckFlow[sink_10,innode_2] 0
WCcheckFlow[sink_10,innode_3] 7
WCcheckFlow[innode_6,sink_25] -14
WCcheckFlow[sink_11,innode_1] 2
WCcheckFlow[sink_19,innode_2] 1
WCcheckFlow[source_3,innode_4] -1
WCcheckFlow[source_2,innode_7] -1
WCcheckFlow[sink_3,innode_8] 37
